p cnf 7230 16
-4790 -4792 5239 -5242 0
-5240 5242 0
-4154 -4804 -5245 0
4154 -5246 0
4790 -5240 0
5245 5246 0
5243 5244 0
4786 -5244 0
-4786 -5243 0
-5239 5240 0
4804 -5246 0
5241 5242 0
4784 -5242 0
-4784 -5241 0
4792 -5240 0
4156 -5248 0
